NAME : XML100_3243_18
DIMENSION : 101
NB_CLUSTERS : 3
CLUSTERING_ALG : DBSCAN
CLUSTERING_PARAMS : eps(101), minSamples(3)
CLUSTERS
1 0
2 1 3 4 6 8 16 17 28 29 31 36 38 40 44 51 52 53 54 59 65 66 67 71 74 76 78 79 81 82 86 91 92 93 96 97
3 2 5 7 9 10 11 12 13 14 15 18 19 20 21 22 23 24 25 26 27 30 32 33 34 35 37 39 41 42 43 45 46 47 48 49 50 55 56 57 58 60 61 62 63 64 68 69 70 72 73 75 77 80 83 84 85 87 88 89 90 94 95 98 99 100
EOF